param set_len = 22;
param target := 2360916;
param values := [1] 343343 [2] 38666 [3] 266235 [4] 133947 [5] 108133 [6] 108137 [7] 97036 [8] 347606 [9] 68415 [10] 435443 [11] 289149 [12] 131135 [13] 432233 [14] 76330 [15] 399846 [16] 44804 [17] 75472 [18] 495119 [19] 183079 [20] 169296 [21] 43396 [22] 167295 ;
